NAME: instance_2071
TYPE: TSP
DIMENSION: 20
EDGE_WEIGHT_TYPE: EUC_2D
NODE_COORD_SECTION
0 8.71 56.77
1 23.51 31.24
2 80.02 65.35
3 30.21 82.96
4 23.09 56.46
5 52.12 17.56
6 24.86 43.67
7 27.32 91.24
8 0.60 31.25
9 68.13 57.14
10 84.59 46.85
11 91.62 50.06
12 60.28 88.70
13 17.87 74.57
14 24.07 91.54
15 49.63 34.57
16 53.63 76.47
17 99.10 83.29
18 88.65 19.11
19 61.93 74.61
EOF
